796158439663847768501,2,1,2,02,8,1,2,011,4,1,2,014,12,1,2,013,4,1,2,02,4,1,2,03,3,1,2,08,15,1,2,012,3,1,2,06,11,1,2,07,15,1,2,01,3,1,2,010,12,1,2,01,2,1,2,012,8,1,2,03,15,1,2,07,7,1,2,08,8,1,2,01,12,1,2,05,13,1,2,015,4,1,2,011,5,1,2,010,1,1,2,012,5,1,2,08,10,1,2,01,13,1,2,015,13,1,2,05,1,1,2,010,11,1,2,09,6,1,2,03,4,1,2,010,9,1,2,010,2,1,2,013,7,1,2,05,13,1,2,01,8,1,2,08,11,1,2,04,4,1,2,010,8,1,2,08,11,1,2,02,2,1,2,014,12,1,2,09,1,1,2,014,7,1,2,010,11,1,2,09,12,1,2,015,14,1,2,09,5,1,2,010,1,1,2,04,7,1,2,0